language Essence 1.3

letting blksize_delta be
        function(1 --> 8, 2 --> 8, 3 --> 9, 4 --> 8, 5 --> 8, 6 --> 8, 7 --> 8, 8 --> 9, 9 --> 8, 10 --> 8, 11 --> 9,
                 12 --> 8, 13 --> 8, 14 --> 8)
letting maxcars be
        function(1 --> 10, 2 --> 10, 3 --> 10, 4 --> 10, 5 --> 10, 6 --> 10, 7 --> 10, 8 --> 10, 9 --> 10, 10 --> 10,
                 11 --> 10, 12 --> 10, 13 --> 10, 14 --> 10)
letting n_cars be 236
letting n_classes be 56
letting n_options be 14
letting quantity be
        function(1 --> 11, 2 --> 6, 3 --> 4, 4 --> 4, 5 --> 4, 6 --> 4, 7 --> 4, 8 --> 4, 9 --> 4, 10 --> 4, 11 --> 4,
                 12 --> 4, 13 --> 4, 14 --> 4, 15 --> 4, 16 --> 4, 17 --> 4, 18 --> 4, 19 --> 4, 20 --> 4, 21 --> 4,
                 22 --> 6, 23 --> 4, 24 --> 4, 25 --> 4, 26 --> 5, 27 --> 4, 28 --> 4, 29 --> 4, 30 --> 4, 31 --> 4,
                 32 --> 4, 33 --> 4, 34 --> 4, 35 --> 4, 36 --> 4, 37 --> 4, 38 --> 4, 39 --> 4, 40 --> 4, 41 --> 4,
                 42 --> 4, 43 --> 4, 44 --> 4, 45 --> 4, 46 --> 4, 47 --> 4, 48 --> 4, 49 --> 4, 50 --> 4, 51 --> 4,
                 52 --> 4, 53 --> 4, 54 --> 4, 55 --> 4, 56 --> 4)
letting usage be
        relation((1, 14), (2, 9), (2, 13), (3, 9), (4, 11), (5, 3), (5, 11), (6, 1), (6, 13), (6, 14), (7, 9), (7, 12),
                 (7, 13), (8, 1), (8, 10), (8, 14), (9, 6), (9, 8), (10, 14), (11, 1), (11, 6), (11, 9), (12, 10),
                 (12, 13), (13, 14), (14, 9), (15, 4), (16, 14), (17, 1), (17, 12), (18, 2), (18, 6), (18, 9), (19, 3),
                 (20, 11), (21, 4), (22, 3), (22, 5), (23, 2), (23, 13), (23, 14), (24, 9), (24, 10), (24, 11),
                 (25, 11), (26, 14), (27, 3), (27, 5), (27, 14), (28, 5), (28, 14), (29, 3), (29, 8), (30, 9), (31, 3),
                 (31, 6), (31, 7), (32, 4), (32, 7), (33, 5), (34, 7), (35, 2), (36, 2), (36, 3), (36, 11), (37, 8),
                 (38, 12), (39, 11), (40, 9), (40, 13), (41, 14), (42, 14), (43, 14), (44, 5), (44, 9), (45, 14),
                 (46, 2), (46, 3), (46, 7), (47, 9), (48, 14), (49, 12), (50, 1), (50, 11), (51, 12), (52, 6), (52, 9),
                 (53, 4), (54, 9), (55, 6), (56, 6), (56, 9), (56, 12))
$ Visualisation for usage
$  1 14
$  2  9
$  2 13
$  3  9
$  4 11
$  5  3
$  5 11
$  6  1
$  6 13
$  6 14
$  7  9
$  7 12
$  7 13
$  8  1
$  8 10
$  8 14
$  9  6
$  9  8
$ 10 14
$ 11  1
$ 11  6
$ 11  9
$ 12 10
$ 12 13
$ 13 14
$ 14  9
$ 15  4
$ 16 14
$ 17  1
$ 17 12
$ 18  2
$ 18  6
$ 18  9
$ 19  3
$ 20 11
$ 21  4
$ 22  3
$ 22  5
$ 23  2
$ 23 13
$ 23 14
$ 24  9
$ 24 10
$ 24 11
$ 25 11
$ 26 14
$ 27  3
$ 27  5
$ 27 14
$ 28  5
$ 28 14
$ 29  3
$ 29  8
$ 30  9
$ 31  3
$ 31  6
$ 31  7
$ 32  4
$ 32  7
$ 33  5
$ 34  7
$ 35  2
$ 36  2
$ 36  3
$ 36 11
$ 37  8
$ 38 12
$ 39 11
$ 40  9
$ 40 13
$ 41 14
$ 42 14
$ 43 14
$ 44  5
$ 44  9
$ 45 14
$ 46  2
$ 46  3
$ 46  7
$ 47  9
$ 48 14
$ 49 12
$ 50  1
$ 50 11
$ 51 12
$ 52  6
$ 52  9
$ 53  4
$ 54  9
$ 55  6
$ 56  6
$ 56  9
$ 56 12

